num_offers = 30;
num_halls = 10;
start=[33,18,51,16,25,51,89,43,16,61,5,52,56,2,71,75,62,2,22,19,41,12,56,28,55,3,67,38,10,63];
end=[70,41,88,41,30,52,99,44,22,63,100,55,79,70,83,88,76,52,43,73,72,83,89,68,82,62,90,90,16,70];
price=[2859,684,3209,1396,341,181,1090,143,636,135,8099,357,1968,3613,775,889,740,3247,1733,5200,1206,6384,971,3162,1937,5669,695,3769,697,82];
requirement=[523,502,711,986,950,691,741,947,961,364,253,564,995,455,713,532,630,272,645,735,560,478,698,689,240,350,666,490,394,531];
capacity=[842,722,496,744,786,731,573,304,734,799];
